(declare-const |param0':700| Int)
(declare-const |return':699| Int)
(assert (and (<= (+ (* -2 |return':699|) |param0':700| 10) 0)
               (<= (+ (* -2 |return':699|) (- |param0':700|) 10) 0)
               (<= (+ |param0':700| -10) 0)
               (or (< (+ |return':699| -55) 0) (< (+ (- |return':699|) 55) 0))))
(check-sat)
